NAME : amz2496.87564_83064.tour
COMMENT : Cost = 87564_83064
COMMENT : Found by LKH-AMZ [Keld Helsgaun] Sun May 11 13:58:25 2025
COMMENT : TW viol.: 0 #: 0
TYPE : TOUR
DIMENSION : 119
TOUR_SECTION
97
59
6
56
95
105
90
41
78
85
16
96
48
103
113
68
104
11
99
67
2
43
29
114
60
53
58
30
92
72
12
70
76
118
5
4
110
106
62
7
27
9
74
47
26
13
80
102
57
21
64
82
93
18
1
8
20
98
94
111
69
61
55
23
84
88
73
45
10
86
25
33
101
119
36
51
38
24
115
71
52
34
87
42
91
28
65
107
77
14
54
108
15
22
39
17
37
31
19
83
46
100
32
81
116
89
109
63
79
66
3
40
117
75
112
50
35
44
49
-1
EOF
